p cnf 106 354
-5 -3 0
-5 -4 0
3 4 5 0
-6 2 0
-6 -5 0
-2 5 6 0
-3 -8 -9 0
3 8 -9 0
-3 8 9 0
3 -8 9 0
10 -7 0
10 -9 0
7 9 -10 0
-12 1 0
-12 -7 0
-1 7 12 0
13 11 0
13 -12 0
-11 12 -13 0
-14 -10 0
-14 13 0
10 -13 14 0
-15 -6 0
-15 -14 0
6 14 15 0
16 2 -17 0
-16 -2 -17 0
16 -2 17 0
-16 2 17 0
18 -15 0
18 17 0
15 -17 -18 0
19 -1 0
19 -18 0
1 18 -19 0
-20 11 0
-20 -11 0
-9 -20 -21 0
9 20 -21 0
-9 20 21 0
9 -20 21 0
22 -19 0
22 -21 0
19 21 -22 0
4 23 -24 0
-4 -23 -24 0
4 -23 24 0
-4 23 24 0
26 -16 0
26 -25 0
16 25 -26 0
-26 -23 -27 0
26 23 -27 0
-26 23 27 0
26 -23 27 0
28 23 0
28 -27 0
-23 27 -28 0
-29 -24 0
-29 28 0
24 -28 29 0
22 -29 -30 0
-22 29 -30 0
22 29 30 0
-22 -29 30 0
-31 -20 0
-31 25 0
20 -25 31 0
-31 -32 -33 0
31 32 -33 0
-31 32 33 0
31 -32 33 0
34 -5 0
34 11 0
5 -11 -34 0
35 -33 0
35 34 0
33 -34 -35 0
-37 36 0
-37 9 0
-36 -9 37 0
38 -2 0
38 -37 0
2 37 -38 0
-39 -6 0
-39 38 0
6 -38 39 0
40 35 0
40 39 0
-35 -39 -40 0
-41 30 0
-41 40 0
-30 -40 41 0
42 -23 0
42 -37 0
23 37 -42 0
-43 41 0
-43 -42 0
-41 42 43 0
-44 25 0
-44 27 0
-25 -27 44 0
-45 -12 0
-45 -11 0
12 11 45 0
-46 -44 0
-46 -45 0
44 45 46 0
-7 13 -47 0
7 -13 -47 0
-7 -13 47 0
7 13 47 0
-48 3 0
-48 -9 0
-3 9 48 0
-49 -48 0
-49 -7 0
48 7 49 0
-47 -49 -50 0
47 49 -50 0
-47 49 50 0
47 -49 50 0
-51 28 0
-51 -36 0
-28 36 51 0
-37 -51 -52 0
37 51 -52 0
-37 51 52 0
37 -51 52 0
53 -36 0
53 52 0
36 -52 -53 0
54 5 0
54 -16 0
-5 16 -54 0
-54 32 -55 0
54 -32 -55 0
-54 -32 55 0
54 32 55 0
-56 -55 0
-56 -54 0
55 54 56 0
57 7 0
57 56 0
-7 -56 -57 0
58 53 0
58 -57 0
-53 57 -58 0
-60 25 0
-60 59 0
-25 -59 60 0
-61 10 0
-61 48 0
-10 -48 61 0
-60 61 -62 0
60 -61 -62 0
-60 -61 62 0
60 61 62 0
63 58 0
63 -62 0
-58 62 -63 0
-50 -63 -64 0
50 63 -64 0
-50 63 64 0
50 -63 64 0
-65 7 0
-65 38 0
-7 -38 65 0
-66 -65 0
-66 36 0
65 -36 66 0
68 -9 0
68 67 0
9 -67 -68 0
-38 26 -69 0
38 -26 -69 0
-38 -26 69 0
38 26 69 0
-70 -61 0
-70 -25 0
61 25 70 0
-71 -69 0
-71 -70 0
69 70 71 0
-72 3 0
-72 20 0
-3 -20 72 0
-73 -71 0
-73 72 0
71 -72 73 0
74 -68 0
74 -73 0
68 73 -74 0
-75 -66 0
-75 74 0
66 -74 75 0
2 5 -76 0
-2 -5 -76 0
2 -5 76 0
-2 5 76 0
-77 -36 0
-77 -32 0
36 32 77 0
78 51 0
78 38 0
-51 -38 -78 0
-79 -77 0
-79 78 0
77 -78 79 0
-76 79 -80 0
76 -79 -80 0
-76 -79 80 0
76 79 80 0
-81 -23 0
-81 80 0
23 -80 81 0
82 36 0
82 81 0
-36 -81 -82 0
-83 -75 0
-83 -82 0
75 82 83 0
-76 78 -84 0
76 -78 -84 0
-76 -78 84 0
76 78 84 0
-85 83 0
-85 -84 0
-83 84 85 0
-86 -64 0
-86 85 0
64 -85 86 0
87 27 0
87 2 0
-27 -2 -87 0
88 -36 0
88 28 0
36 -28 -88 0
89 88 0
89 -59 0
-88 59 -89 0
87 -89 -90 0
-87 89 -90 0
87 89 90 0
-87 -89 90 0
-91 -2 0
-91 -3 0
2 3 91 0
-92 31 0
-92 -91 0
-31 91 92 0
93 -23 0
93 -5 0
23 5 -93 0
94 11 0
94 93 0
-11 -93 -94 0
95 92 0
95 94 0
-92 -94 -95 0
96 -54 0
96 -60 0
54 60 -96 0
95 96 -97 0
-95 -96 -97 0
95 -96 97 0
-95 96 97 0
-98 -78 0
-98 76 0
78 -76 98 0
99 98 0
99 5 0
-98 -5 -99 0
-100 -97 0
-100 -99 0
97 99 100 0
-101 90 0
-101 -100 0
-90 100 101 0
102 86 0
102 -101 0
-86 101 -102 0
103 46 0
103 102 0
-46 -102 -103 0
104 43 0
104 103 0
-43 -103 -104 0
-105 -93 0
-105 -59 0
93 59 105 0
106 104 0
106 105 0
-104 -105 -106 0
-42 35 0
103 -96 0
-41 -22 65 36 0
-83 -78 102 0
102 75 59 -51 -7 0
31 85 -1 0
-78 -19 40 45 0
85 -43 0
3 -56 -102 -29 104 91 0
82 104 -84 -88 26 -51 0
-14 -75 -30 79 98 0
-43 61 102 29 0
29 58 25 -11 85 -3 0
-32 30 -51 -74 -22 -57 0
68 -101 -18 -57 0
42 -7 -47 40 0
-63 6 0
-50 -97 85 0
74 61 58 6 101 0
-43 -69 3 -7 0
-80 91 0
33 64 44 -36 -54 13 0
84 16 -52 -63 48 0
82 40 5 -99 -21 106 0
53 50 93 48 0
27 24 41 79 0
15 50 0
-36 -49 75 -103 -66 0
-94 -44 -71 96 -97 0
-59 8 -82 -90 -51 0
33 36 0
104 74 36 102 18 -33 0
-19 -96 -97 -54 28 0
90 51 0
20 -67 72 -8 -91 0
52 -27 12 0
-23 -49 82 -79 -38 -32 0
-42 -84 -44 45 -18 0
52 -88 0
-29 1 37 2 -93 -15 0
10 -98 102 66 -41 0
-12 96 -48 0
-43 74 -102 18 0
35 -77 58 -74 50 -89 0
66 71 -14 -85 94 -18 0
-47 -92 45 0
40 34 42 7 26 0
85 58 -2 0
11 82 0
83 -35 99 77 -64 -13 0
73 -97 0
-14 100 -29 0
86 -12 68 71 -40 0
-73 70 -101 0
29 14 -87 12 -31 0
-71 50 -102 88 -11 0
25 -59 -57 -101 -46 0
-45 41 -105 -1 0
-5 -32 53 86 0
106 0
